
Gurobi 10.0.3 (linux64, gurobi_cl) logging started Thu Nov  2 11:34:06 2023

Set parameter Username
Set parameter TimeLimit to value 3600
Set parameter LogFile to value "RCPSP_418.log"
Set parameter Threads to value 32
Academic license - for non-commercial use only - expires 2024-10-30
Using license file /home/jrivera6/gurobi-licenses/v1003/compute-0-39/gurobi.lic

Gurobi Optimizer version 10.0.3 build v10.0.3rc0 (linux64)
Copyright (c) 2023, Gurobi Optimization, LLC

Read MPS format model from file RCPSP_418.mps
Reading time = 0.01 seconds
RCPSP_418: 5349 rows, 2080 columns, 17994 nonzeros

CPU model: Intel(R) Xeon(R) Gold 6242 CPU @ 2.80GHz, instruction set [SSE2|AVX|AVX2|AVX512]
Thread count: 32 physical cores, 32 logical processors, using up to 32 threads

Optimize a model with 5349 rows, 2080 columns and 17994 nonzeros
Model fingerprint: 0x09d35116
Variable types: 32 continuous, 2048 integer (2048 binary)
Coefficient statistics:
  Matrix range     [1e+00, 2e+02]
  Objective range  [1e+00, 1e+00]
  Bounds range     [1e+00, 1e+00]
  RHS range        [1e+00, 2e+02]
Presolve removed 3499 rows and 1398 columns
Presolve time: 0.20s
Presolved: 1850 rows, 682 columns, 6014 nonzeros
Variable types: 31 continuous, 651 integer (651 binary)

Root relaxation: objective 7.200000e+01, 228 iterations, 0.00 seconds (0.00 work units)

    Nodes    |    Current Node    |     Objective Bounds      |     Work
 Expl Unexpl |  Obj  Depth IntInf | Incumbent    BestBd   Gap | It/Node Time

     0     0   72.00000    0    6          -   72.00000      -     -    0s
H    0     0                      87.0000000   72.00000  17.2%     -    0s
H    0     0                      82.0000000   72.00000  12.2%     -    0s
     0     0   72.00000    0   47   82.00000   72.00000  12.2%     -    0s
     0     0   72.00000    0   19   82.00000   72.00000  12.2%     -    0s
     0     0   72.00029    0   35   82.00000   72.00029  12.2%     -    0s
     0     0   72.00029    0   35   82.00000   72.00029  12.2%     -    0s
     0     0   76.00000    0   30   82.00000   76.00000  7.32%     -    0s
     0     0   76.00000    0   21   82.00000   76.00000  7.32%     -    0s
     0     0   76.00000    0   18   82.00000   76.00000  7.32%     -    0s
     0     0   76.00000    0   22   82.00000   76.00000  7.32%     -    0s
     0     0   76.00000    0   22   82.00000   76.00000  7.32%     -    0s
     0     0   76.00000    0   73   82.00000   76.00000  7.32%     -    1s
     0     0   76.00000    0   60   82.00000   76.00000  7.32%     -    1s
     0     0   76.00000    0   60   82.00000   76.00000  7.32%     -    1s
     0     0   76.00000    0   55   82.00000   76.00000  7.32%     -    1s
     0     0   76.00000    0   55   82.00000   76.00000  7.32%     -    1s
     0     0   76.00000    0   55   82.00000   76.00000  7.32%     -    1s
     0     0   76.00000    0   70   82.00000   76.00000  7.32%     -    1s
     0     0   76.00000    0   75   82.00000   76.00000  7.32%     -    1s
     0     0   76.00000    0   66   82.00000   76.00000  7.32%     -    1s
     0     0   76.00000    0   62   82.00000   76.00000  7.32%     -    1s
     0     0   76.00000    0   42   82.00000   76.00000  7.32%     -    1s
     0     0   76.00000    0   69   82.00000   76.00000  7.32%     -    1s
     0     0   76.00000    0   37   82.00000   76.00000  7.32%     -    1s
     0     0   76.00000    0   76   82.00000   76.00000  7.32%     -    1s
     0     0   76.00000    0   73   82.00000   76.00000  7.32%     -    1s
     0     0   76.00000    0   47   82.00000   76.00000  7.32%     -    1s
     0     0   76.00000    0   42   82.00000   76.00000  7.32%     -    1s
     0     0   76.00000    0   37   82.00000   76.00000  7.32%     -    1s
     0     0   76.00000    0   41   82.00000   76.00000  7.32%     -    1s
     0     0   76.00000    0   72   82.00000   76.00000  7.32%     -    1s
     0     0   77.00000    0   77   82.00000   77.00000  6.10%     -    1s
     0     0   77.00000    0   69   82.00000   77.00000  6.10%     -    1s
     0     0   77.00000    0   49   82.00000   77.00000  6.10%     -    1s
     0     0   77.00000    0   59   82.00000   77.00000  6.10%     -    1s
     0     0   77.00000    0   87   82.00000   77.00000  6.10%     -    1s
     0     0   77.00000    0   78   82.00000   77.00000  6.10%     -    1s
     0     0   77.00000    0   70   82.00000   77.00000  6.10%     -    2s
     0     0   77.00000    0   70   82.00000   77.00000  6.10%     -    2s
     0     0   77.00000    0   54   82.00000   77.00000  6.10%     -    2s
     0     0   77.00000    0   55   82.00000   77.00000  6.10%     -    2s
     0     0   77.00000    0   55   82.00000   77.00000  6.10%     -    2s
     0     0   77.00000    0   55   82.00000   77.00000  6.10%     -    2s
     0     0   77.00000    0   69   82.00000   77.00000  6.10%     -    2s
     0     0   77.00000    0   61   82.00000   77.00000  6.10%     -    2s
     0     0   77.00000    0   62   82.00000   77.00000  6.10%     -    2s
     0     0   77.00000    0   64   82.00000   77.00000  6.10%     -    2s
     0     0   77.00000    0   58   82.00000   77.00000  6.10%     -    2s
     0     0   77.00000    0   58   82.00000   77.00000  6.10%     -    2s
     0     0   77.00000    0   72   82.00000   77.00000  6.10%     -    2s
     0     0   77.00000    0   74   82.00000   77.00000  6.10%     -    2s
     0     0   77.00000    0   25   82.00000   77.00000  6.10%     -    2s
     0     0   77.00000    0   56   82.00000   77.00000  6.10%     -    2s
     0     0   77.00000    0   51   82.00000   77.00000  6.10%     -    2s
     0     0   77.00000    0   50   82.00000   77.00000  6.10%     -    2s
     0     0   77.00000    0   61   82.00000   77.00000  6.10%     -    2s
     0     0   77.00000    0   34   82.00000   77.00000  6.10%     -    3s
     0     0   77.00000    0   34   82.00000   77.00000  6.10%     -    3s
     0     2   77.00000    0   15   82.00000   77.00000  6.10%     -    3s

Cutting planes:
  Gomory: 1
  Cover: 11
  Implied bound: 12
  Clique: 10
  MIR: 53
  Inf proof: 4
  Mod-K: 1
  RLT: 4
  Relax-and-lift: 16

Explored 23 nodes (8364 simplex iterations) in 4.18 seconds (0.79 work units)
Thread count was 32 (of 32 available processors)

Solution count 2: 82 87 

Optimal solution found (tolerance 1.00e-04)
Best objective 8.200000000000e+01, best bound 8.200000000000e+01, gap 0.0000%

Wrote result file 'RCPSP_418.sol'

